p tw 790 1523
1 356
1 357
1 584
1 585
1 686
1 687
2 702
2 703
3 717
3 718
3 785
3 786
4 311
4 312
5 778
5 779
6 704
6 705
7 92
7 382
7 383
7 485
7 486
7 528
7 591
7 592
8 289
8 290
8 497
8 498
8 542
8 543
8 603
8 604
9 628
9 629
10 370
10 371
10 543
10 544
10 614
10 615
11 471
11 472
12 682
12 683
13 654
13 655
13 708
13 709
14 670
14 671
14 727
14 728
15 391
15 392
15 735
15 736
16 290
16 291
16 544
16 545
16 615
16 616
17 291
17 292
17 773
17 774
18 415
18 416
19 338
19 339
19 555
19 556
19 666
19 667
20 304
20 305
20 494
20 495
20 600
20 601
21 781
21 782
22 376
22 377
23 788
23 789
24 384
24 385
24 725
24 726
25 310
25 311
25 639
25 640
25 753
25 754
26 458
26 459
27 287
27 288
28 432
28 433
29 308
29 309
29 638
29 639
30 519
30 520
30 711
30 712
31 348
31 349
31 526
31 527
31 572
31 573
32 309
32 310
33 333
33 334
34 743
34 744
35 218
35 479
36 695
36 696
37 464
37 465
38 514
38 515
39 713
39 714
40 353
40 354
40 787
40 788
41 408
41 409
42 710
42 711
43 733
43 734
44 456
44 457
45 460
45 461
45 771
45 772
46 442
46 443
46 679
46 680
47 515
47 516
47 742
47 743
48 293
48 294
49 697
49 698
50 351
50 352
50 484
50 485
50 576
50 577
50 590
50 591
51 441
51 442
51 779
51 780
52 400
52 401
52 748
52 749
53 738
53 739
54 294
54 295
55 288
55 289
55 541
55 542
55 613
55 614
56 416
56 417
57 105
57 357
57 358
57 758
58 380
58 381
58 723
58 724
59 383
59 384
59 483
59 484
59 589
59 590
60 750
60 751
61 284
61 285
61 606
61 607
62 389
62 390
62 560
62 561
62 630
62 631
63 721
63 722
64 368
64 369
64 700
64 701
65 709
65 710
66 618
66 619
67 499
67 500
68 445
68 446
69 337
69 338
70 81
70 378
70 379
70 498
70 604
71 407
71 408
72 392
72 393
72 564
72 565
73 523
73 524
74 402
74 403
75 671
75 672
75 728
75 729
76 729
76 730
77 789
77 790
78 424
78 425
78 661
78 662
79 322
79 323
80 244
80 395
80 396
80 449
80 569
80 570
81 394
81 395
81 498
81 604
82 295
82 296
83 741
83 742
84 403
84 404
84 784
84 785
85 720
85 721
86 371
86 372
86 465
86 466
86 518
86 519
87 417
87 418
87 493
87 494
87 540
87 541
87 599
87 600
88 439
88 440
88 772
88 773
89 775
89 776
90 344
90 345
90 563
90 564
90 674
90 675
91 718
91 719
92 192
92 421
92 422
92 528
92 761
93 375
93 376
93 492
93 493
93 597
93 598
93 620
93 621
94 699
94 700
95 330
95 331
95 547
95 548
95 655
95 656
96 419
96 420
96 703
96 704
97 307
97 308
97 486
97 487
97 577
97 578
97 592
97 593
97 637
97 638
98 780
98 781
99 363
99 364
100 503
100 504
101 739
101 740
102 414
102 415
102 504
102 505
102 647
102 648
102 692
102 693
103 411
103 412
103 524
103 525
103 642
103 643
103 755
103 756
104 511
104 512
104 737
104 738
105 136
105 279
105 358
105 359
105 525
105 586
105 687
105 688
105 758
106 405
106 406
106 522
106 523
106 640
106 641
106 754
106 755
107 401
107 402
107 578
107 579
107 636
107 637
108 454
108 455
109 452
109 453
110 470
110 471
111 435
111 436
111 736
111 737
112 510
112 511
113 478
113 479
114 513
114 514
114 740
114 741
115 468
115 469
116 420
116 421
116 657
116 658
117 475
117 476
118 719
118 720
119 317
119 318
120 443
120 444
120 521
120 522
120 579
120 580
120 751
120 752
121 365
121 366
121 487
121 488
121 533
121 534
121 593
121 594
121 610
121 611
122 298
122 299
122 496
122 497
122 552
122 553
122 602
122 603
123 336
123 337
123 786
123 787
124 776
124 777
125 282
125 790
126 374
126 375
127 366
127 367
127 535
127 536
127 612
127 613
128 632
128 633
129 461
129 462
130 433
130 434
131 477
131 478
132 342
132 343
133 770
133 771
134 323
134 324
134 489
134 490
134 595
134 596
135 681
135 682
136 213
136 360
136 361
136 586
136 688
137 332
137 333
138 315
138 316
139 359
139 360
140 434
140 435
141 398
141 399
141 516
141 517
141 571
141 572
141 747
141 748
142 390
142 391
143 467
143 468
144 756
144 757
145 463
145 464
145 701
145 702
146 762
146 763
147 508
147 509
148 296
148 297
148 549
148 550
148 619
148 620
149 379
149 380
150 413
150 414
150 646
150 647
151 325
151 326
151 651
151 652
152 426
152 427
152 550
152 551
152 662
152 663
153 299
153 300
153 624
153 625
154 326
154 327
154 538
154 539
155 283
155 284
155 529
155 530
155 605
155 606
156 436
156 437
157 397
157 398
157 746
157 747
158 329
158 330
158 653
158 654
159 520
159 521
160 314
160 315
160 582
160 583
160 643
160 644
161 451
161 452
162 459
162 460
163 324
163 325
163 537
163 538
163 650
163 651
164 623
164 624
164 726
164 727
165 502
165 503
166 457
166 458
167 393
167 394
167 566
167 567
167 633
167 634
168 472
168 473
168 660
168 661
169 744
169 745
170 367
170 368
171 286
171 287
171 532
171 533
171 608
171 609
172 609
172 610
172 693
172 694
173 369
173 370
174 300
174 301
174 559
174 560
174 626
174 627
175 705
175 706
176 672
176 673
177 763
177 764
178 714
178 715
179 345
179 346
179 491
179 492
179 562
179 563
179 598
179 599
180 334
180 335
181 285
181 286
181 531
181 532
181 607
181 608
182 303
182 304
182 561
182 562
182 631
182 632
183 450
183 451
184 355
184 356
184 583
184 584
184 684
184 685
185 437
185 438
186 691
186 692
187 327
187 328
187 652
187 653
188 517
188 518
188 707
188 708
189 361
189 362
190 698
190 699
191 352
191 353
191 580
191 581
191 680
191 681
192 474
192 475
192 761
193 385
193 386
193 453
193 454
193 625
193 626
194 381
194 382
194 482
194 483
194 557
194 558
194 588
194 589
194 622
194 623
195 305
195 306
195 567
195 568
195 634
195 635
196 306
196 307
196 573
196 574
197 644
197 645
198 427
198 428
198 553
198 554
198 664
198 665
199 769
199 770
200 377
200 378
200 476
200 477
201 409
201 410
202 716
202 717
203 752
203 753
204 696
204 697
205 320
205 321
205 766
205 767
206 328
206 329
206 706
206 707
207 340
207 341
208 267
208 500
209 406
209 407
209 448
209 449
209 581
209 582
209 641
209 642
210 668
210 669
211 466
211 467
212 343
212 344
212 507
212 508
212 673
212 674
212 732
212 733
213 220
213 446
213 688
214 431
214 432
215 372
215 373
215 545
215 546
215 616
215 617
216 312
216 313
217 774
217 775
218 479
219 318
219 319
219 645
219 646
220 446
220 585
220 586
220 685
220 686
221 292
221 293
221 546
221 547
221 617
221 618
222 473
222 474
223 350
223 351
223 749
223 750
224 783
224 784
225 362
225 363
225 530
225 531
225 689
225 690
226 757
226 758
227 386
227 387
227 506
227 507
227 730
227 731
228 301
228 302
229 512
229 513
230 745
230 746
231 777
231 778
232 331
232 332
232 656
232 657
233 455
233 456
234 759
234 760
235 387
235 388
236 428
236 429
236 554
236 555
236 665
236 666
237 316
237 317
238 422
238 423
238 548
238 549
238 658
238 659
239 412
239 413
239 764
239 765
240 462
240 463
241 611
241 612
242 430
242 431
242 558
242 559
242 669
242 670
243 627
243 628
244 418
244 419
244 449
244 539
244 540
245 767
245 768
246 347
246 348
246 480
246 481
246 570
246 571
247 341
247 342
247 724
247 725
248 319
248 320
248 534
248 535
248 649
248 650
249 410
249 411
249 490
249 491
249 596
249 597
250 444
250 445
250 782
250 783
251 339
251 340
251 501
251 502
251 722
251 723
252 648
252 649
253 423
253 424
253 712
253 713
254 396
254 397
255 373
255 374
256 425
256 426
256 551
256 552
257 429
257 430
257 556
257 557
257 667
257 668
258 399
258 400
258 574
258 575
258 635
258 636
259 354
259 355
259 683
259 684
260 364
260 365
261 765
261 766
262 715
262 716
263 768
263 769
264 438
264 439
264 568
264 569
264 676
264 677
265 663
265 664
266 388
266 389
267 346
267 347
267 495
267 496
267 500
267 565
267 566
267 601
267 602
267 675
267 676
268 349
268 350
269 469
269 470
270 505
270 506
270 694
270 695
271 335
271 336
271 659
271 660
272 321
272 322
272 488
272 489
272 527
272 528
272 536
272 537
272 594
272 595
272 760
272 761
273 302
273 303
273 509
273 510
273 629
273 630
273 734
273 735
274 404
274 405
275 690
275 691
276 481
276 482
276 587
276 588
277 297
277 298
277 621
277 622
278 440
278 441
278 447
278 448
278 575
278 576
278 677
278 678
279 313
279 314
279 525
280 731
280 732
281 678
281 679
282 790
283 284
284 285
285 286
286 287
287 288
288 289
289 290
290 291
291 292
292 293
293 294
294 295
295 296
296 297
297 298
298 299
299 300
300 301
301 302
302 303
303 304
304 305
305 306
306 307
307 308
308 309
309 310
310 311
311 312
312 313
313 314
314 315
315 316
316 317
317 318
318 319
319 320
320 321
321 322
322 323
323 324
324 325
325 326
326 327
327 328
328 329
329 330
330 331
331 332
332 333
333 334
334 335
335 336
336 337
337 338
338 339
339 340
340 341
341 342
342 343
343 344
344 345
345 346
346 347
347 348
348 349
349 350
350 351
351 352
352 353
353 354
354 355
355 356
356 357
357 358
358 359
359 360
360 361
361 362
362 363
363 364
364 365
365 366
366 367
367 368
368 369
369 370
370 371
371 372
372 373
373 374
374 375
375 376
376 377
377 378
378 379
379 380
380 381
381 382
382 383
383 384
384 385
385 386
386 387
387 388
388 389
389 390
390 391
391 392
392 393
393 394
394 395
395 396
396 397
397 398
398 399
399 400
400 401
401 402
402 403
403 404
404 405
405 406
406 407
407 408
408 409
409 410
410 411
411 412
412 413
413 414
414 415
415 416
416 417
417 418
418 419
419 420
420 421
421 422
422 423
423 424
424 425
425 426
426 427
427 428
428 429
429 430
430 431
431 432
432 433
433 434
434 435
435 436
436 437
437 438
438 439
439 440
440 441
441 442
442 443
443 444
444 445
445 446
447 448
448 449
450 451
451 452
452 453
453 454
454 455
455 456
456 457
457 458
458 459
459 460
460 461
461 462
462 463
463 464
464 465
465 466
466 467
467 468
468 469
469 470
470 471
471 472
472 473
473 474
474 475
475 476
476 477
477 478
478 479
480 481
481 482
482 483
483 484
484 485
485 486
486 487
487 488
488 489
489 490
490 491
491 492
492 493
493 494
494 495
495 496
496 497
497 498
499 500
501 502
502 503
503 504
504 505
505 506
506 507
507 508
508 509
509 510
510 511
511 512
512 513
513 514
514 515
515 516
516 517
517 518
518 519
519 520
520 521
521 522
522 523
523 524
524 525
526 527
527 528
529 530
530 531
531 532
532 533
533 534
534 535
535 536
536 537
537 538
538 539
539 540
540 541
541 542
542 543
543 544
544 545
545 546
546 547
547 548
548 549
549 550
550 551
551 552
552 553
553 554
554 555
555 556
556 557
557 558
558 559
559 560
560 561
561 562
562 563
563 564
564 565
565 566
566 567
567 568
568 569
569 570
570 571
571 572
572 573
573 574
574 575
575 576
576 577
577 578
578 579
579 580
580 581
581 582
582 583
583 584
584 585
585 586
587 588
588 589
589 590
590 591
591 592
592 593
593 594
594 595
595 596
596 597
597 598
598 599
599 600
600 601
601 602
602 603
603 604
605 606
606 607
607 608
608 609
609 610
610 611
611 612
612 613
613 614
614 615
615 616
616 617
617 618
618 619
619 620
620 621
621 622
622 623
623 624
624 625
625 626
626 627
627 628
628 629
629 630
630 631
631 632
632 633
633 634
634 635
635 636
636 637
637 638
638 639
639 640
640 641
641 642
642 643
643 644
644 645
645 646
646 647
647 648
648 649
649 650
650 651
651 652
652 653
653 654
654 655
655 656
656 657
657 658
658 659
659 660
660 661
661 662
662 663
663 664
664 665
665 666
666 667
667 668
668 669
669 670
670 671
671 672
672 673
673 674
674 675
675 676
676 677
677 678
678 679
679 680
680 681
681 682
682 683
683 684
684 685
685 686
686 687
687 688
689 690
690 691
691 692
692 693
693 694
694 695
695 696
696 697
697 698
698 699
699 700
700 701
701 702
702 703
703 704
704 705
705 706
706 707
707 708
708 709
709 710
710 711
711 712
712 713
713 714
714 715
715 716
716 717
717 718
718 719
719 720
720 721
721 722
722 723
723 724
724 725
725 726
726 727
727 728
728 729
729 730
730 731
731 732
732 733
733 734
734 735
735 736
736 737
737 738
738 739
739 740
740 741
741 742
742 743
743 744
744 745
745 746
746 747
747 748
748 749
749 750
750 751
751 752
752 753
753 754
754 755
755 756
756 757
757 758
759 760
760 761
762 763
763 764
764 765
765 766
766 767
767 768
768 769
769 770
770 771
771 772
772 773
773 774
774 775
775 776
776 777
777 778
778 779
779 780
780 781
781 782
782 783
783 784
784 785
785 786
786 787
787 788
788 789
789 790
